\ Model birth-death-regulation-capture-efficiency
\ LP format - for model browsing. Use MPS format to capture full model detail.
Minimize
  k_reg
Subject To
 R0: k_deg_2 = 1
 B_lb_0,_0: p[0,0] + 0.2 p[0,1] + 0.04 p[0,2] + 0.008 p[0,3]
   + 0.0016 p[0,4] + 0.00032 p[0,5] + 6.4e-05 p[0,6] + 1.28e-05 p[0,7]
   + 0.2 p[1,0] + 0.04 p[1,1] + 0.008 p[1,2] + 0.0016 p[1,3]
   + 0.00032 p[1,4] + 6.4e-05 p[1,5] + 1.28e-05 p[1,6] + 2.56e-06 p[1,7]
   + 0.04 p[2,0] + 0.008 p[2,1] + 0.0016 p[2,2] + 0.00032 p[2,3]
   + 6.4e-05 p[2,4] + 1.28e-05 p[2,5] + 2.56e-06 p[2,6] + 5.12e-07 p[2,7]
   + 0.008 p[3,0] + 0.0016 p[3,1] + 0.00032 p[3,2] + 6.4e-05 p[3,3]
   + 1.28e-05 p[3,4] + 2.56e-06 p[3,5] + 5.12e-07 p[3,6] + 1.024e-07 p[3,7]
   + 0.0016 p[4,0] + 0.00032 p[4,1] + 6.4e-05 p[4,2] + 1.28e-05 p[4,3]
   + 2.56e-06 p[4,4] + 5.12e-07 p[4,5] + 1.024e-07 p[4,6]
   + 2.048e-08 p[4,7] >= 0.184996875
 B_ub_0,_0: p[0,0] + 0.2 p[0,1] + 0.04 p[0,2] + 0.008 p[0,3]
   + 0.0016 p[0,4] + 0.00032 p[0,5] + 6.4e-05 p[0,6] + 1.28e-05 p[0,7]
   + 0.2 p[1,0] + 0.04 p[1,1] + 0.008 p[1,2] + 0.0016 p[1,3]
   + 0.00032 p[1,4] + 6.4e-05 p[1,5] + 1.28e-05 p[1,6] + 2.56e-06 p[1,7]
   + 0.04 p[2,0] + 0.008 p[2,1] + 0.0016 p[2,2] + 0.00032 p[2,3]
   + 6.4e-05 p[2,4] + 1.28e-05 p[2,5] + 2.56e-06 p[2,6] + 5.12e-07 p[2,7]
   + 0.008 p[3,0] + 0.0016 p[3,1] + 0.00032 p[3,2] + 6.4e-05 p[3,3]
   + 1.28e-05 p[3,4] + 2.56e-06 p[3,5] + 5.12e-07 p[3,6] + 1.024e-07 p[3,7]
   + 0.0016 p[4,0] + 0.00032 p[4,1] + 6.4e-05 p[4,2] + 1.28e-05 p[4,3]
   + 2.56e-06 p[4,4] + 5.12e-07 p[4,5] + 1.024e-07 p[4,6]
   + 2.048e-08 p[4,7] <= 0.2618
 B_lb_0,_1: 0.8 p[0,1] + 0.32 p[0,2] + 0.096 p[0,3] + 0.0256 p[0,4]
   + 0.0064 p[0,5] + 0.001536 p[0,6] + 0.0003584 p[0,7] + 0.16 p[1,1]
   + 0.064 p[1,2] + 0.0192 p[1,3] + 0.00512 p[1,4] + 0.00128 p[1,5]
   + 0.0003072 p[1,6] + 7.168e-05 p[1,7] + 0.032 p[2,1] + 0.0128 p[2,2]
   + 0.00384 p[2,3] + 0.001024 p[2,4] + 0.000256 p[2,5] + 6.144e-05 p[2,6]
   + 1.4336e-05 p[2,7] + 0.0064 p[3,1] + 0.00256 p[3,2] + 0.000768 p[3,3]
   + 0.0002048 p[3,4] + 5.12e-05 p[3,5] + 1.2288e-05 p[3,6]
   + 2.8672e-06 p[3,7] + 0.00128 p[4,1] + 0.000512 p[4,2]
   + 0.0001536 p[4,3] + 4.096e-05 p[4,4] + 1.024e-05 p[4,5]
   + 2.4576e-06 p[4,6] + 5.7344e-07 p[4,7] >= 0.114996875
 B_ub_0,_1: 0.8 p[0,1] + 0.32 p[0,2] + 0.096 p[0,3] + 0.0256 p[0,4]
   + 0.0064 p[0,5] + 0.001536 p[0,6] + 0.0003584 p[0,7] + 0.16 p[1,1]
   + 0.064 p[1,2] + 0.0192 p[1,3] + 0.00512 p[1,4] + 0.00128 p[1,5]
   + 0.0003072 p[1,6] + 7.168e-05 p[1,7] + 0.032 p[2,1] + 0.0128 p[2,2]
   + 0.00384 p[2,3] + 0.001024 p[2,4] + 0.000256 p[2,5] + 6.144e-05 p[2,6]
   + 1.4336e-05 p[2,7] + 0.0064 p[3,1] + 0.00256 p[3,2] + 0.000768 p[3,3]
   + 0.0002048 p[3,4] + 5.12e-05 p[3,5] + 1.2288e-05 p[3,6]
   + 2.8672e-06 p[3,7] + 0.00128 p[4,1] + 0.000512 p[4,2]
   + 0.0001536 p[4,3] + 4.096e-05 p[4,4] + 1.024e-05 p[4,5]
   + 2.4576e-06 p[4,6] + 5.7344e-07 p[4,7] <= 0.1894
 B_lb_0,_2: 0.64 p[0,2] + 0.384 p[0,3] + 0.1536 p[0,4] + 0.0512 p[0,5]
   + 0.01536 p[0,6] + 0.0043008 p[0,7] + 0.128 p[1,2] + 0.0768 p[1,3]
   + 0.03072 p[1,4] + 0.01024 p[1,5] + 0.003072 p[1,6] + 0.00086016 p[1,7]
   + 0.0256 p[2,2] + 0.01536 p[2,3] + 0.006144 p[2,4] + 0.002048 p[2,5]
   + 0.0006144 p[2,6] + 0.000172032 p[2,7] + 0.00512 p[3,2]
   + 0.003072 p[3,3] + 0.0012288 p[3,4] + 0.0004096 p[3,5]
   + 0.00012288 p[3,6] + 3.44064e-05 p[3,7] + 0.001024 p[4,2]
   + 0.0006144 p[4,3] + 0.00024576 p[4,4] + 8.192e-05 p[4,5]
   + 2.4576e-05 p[4,6] + 6.88128e-06 p[4,7] >= -0.00120312499999999
 B_ub_0,_2: 0.64 p[0,2] + 0.384 p[0,3] + 0.1536 p[0,4] + 0.0512 p[0,5]
   + 0.01536 p[0,6] + 0.0043008 p[0,7] + 0.128 p[1,2] + 0.0768 p[1,3]
   + 0.03072 p[1,4] + 0.01024 p[1,5] + 0.003072 p[1,6] + 0.00086016 p[1,7]
   + 0.0256 p[2,2] + 0.01536 p[2,3] + 0.006144 p[2,4] + 0.002048 p[2,5]
   + 0.0006144 p[2,6] + 0.000172032 p[2,7] + 0.00512 p[3,2]
   + 0.003072 p[3,3] + 0.0012288 p[3,4] + 0.0004096 p[3,5]
   + 0.00012288 p[3,6] + 3.44064e-05 p[3,7] + 0.001024 p[4,2]
   + 0.0006144 p[4,3] + 0.00024576 p[4,4] + 8.192e-05 p[4,5]
   + 2.4576e-05 p[4,6] + 6.88128e-06 p[4,7] <= 0.0648
 B_lb_0,_3: 0.512 p[0,3] + 0.4096 p[0,4] + 0.2048 p[0,5] + 0.08192 p[0,6]
   + 0.028672 p[0,7] + 0.1024 p[1,3] + 0.08192 p[1,4] + 0.04096 p[1,5]
   + 0.016384 p[1,6] + 0.0057344 p[1,7] + 0.02048 p[2,3] + 0.016384 p[2,4]
   + 0.008192 p[2,5] + 0.0032768 p[2,6] + 0.00114688 p[2,7]
   + 0.004096 p[3,3] + 0.0032768 p[3,4] + 0.0016384 p[3,5]
   + 0.00065536 p[3,6] + 0.000229376 p[3,7] + 0.0008192 p[4,3]
   + 0.00065536 p[4,4] + 0.00032768 p[4,5] + 0.000131072 p[4,6]
   + 4.58752e-05 p[4,7] >= -0.039003125
 B_ub_0,_3: 0.512 p[0,3] + 0.4096 p[0,4] + 0.2048 p[0,5] + 0.08192 p[0,6]
   + 0.028672 p[0,7] + 0.1024 p[1,3] + 0.08192 p[1,4] + 0.04096 p[1,5]
   + 0.016384 p[1,6] + 0.0057344 p[1,7] + 0.02048 p[2,3] + 0.016384 p[2,4]
   + 0.008192 p[2,5] + 0.0032768 p[2,6] + 0.00114688 p[2,7]
   + 0.004096 p[3,3] + 0.0032768 p[3,4] + 0.0016384 p[3,5]
   + 0.00065536 p[3,6] + 0.000229376 p[3,7] + 0.0008192 p[4,3]
   + 0.00065536 p[4,4] + 0.00032768 p[4,5] + 0.000131072 p[4,6]
   + 4.58752e-05 p[4,7] <= 0.0214
 B_lb_0,_4: 0.4096 p[0,4] + 0.4096 p[0,5] + 0.24576 p[0,6]
   + 0.114688 p[0,7] + 0.08192 p[1,4] + 0.08192 p[1,5] + 0.049152 p[1,6]
   + 0.0229376 p[1,7] + 0.016384 p[2,4] + 0.016384 p[2,5]
   + 0.0098304 p[2,6] + 0.00458752 p[2,7] + 0.0032768 p[3,4]
   + 0.0032768 p[3,5] + 0.00196608 p[3,6] + 0.000917504 p[3,7]
   + 0.00065536 p[4,4] + 0.00065536 p[4,5] + 0.000393216 p[4,6]
   + 1.8350079999999278e-04 p[4,7] >= -0.051803125
 B_ub_0,_4: 0.4096 p[0,4] + 0.4096 p[0,5] + 0.24576 p[0,6]
   + 0.114688 p[0,7] + 0.08192 p[1,4] + 0.08192 p[1,5] + 0.049152 p[1,6]
   + 0.0229376 p[1,7] + 0.016384 p[2,4] + 0.016384 p[2,5]
   + 0.0098304 p[2,6] + 0.00458752 p[2,7] + 0.0032768 p[3,4]
   + 0.0032768 p[3,5] + 0.00196608 p[3,6] + 0.000917504 p[3,7]
   + 0.00065536 p[4,4] + 0.00065536 p[4,5] + 0.000393216 p[4,6]
   + 1.8350079999999278e-04 p[4,7] <= 0.0044
 B_lb_0,_5: 0.32768 p[0,5] + 0.393216 p[0,6] + 0.2752512000000027 p[0,7]
   + 0.065536 p[1,5] + 0.0786432 p[1,6] + 0.055050240000006 p[1,7]
   + 0.0131072 p[2,5] + 0.0157286400000017 p[2,6]
   + 0.0110100479999995 p[2,7] + 0.00262144 p[3,5]
   + 0.00314572799999987 p[3,6] + 0.00220200960000011 p[3,7]
   + 0.000524288 p[4,5] + 6.2914560000003209e-04 p[4,6]
   + 0.000440402 p[4,7] >= -0.053203125
 B_ub_0,_5: 0.32768 p[0,5] + 0.393216 p[0,6] + 0.2752512000000027 p[0,7]
   + 0.065536 p[1,5] + 0.0786432 p[1,6] + 0.055050240000006 p[1,7]
   + 0.0131072 p[2,5] + 0.0157286400000017 p[2,6]
   + 0.0110100479999995 p[2,7] + 0.00262144 p[3,5]
   + 0.00314572799999987 p[3,6] + 0.00220200960000011 p[3,7]
   + 0.000524288 p[4,5] + 6.2914560000003209e-04 p[4,6]
   + 0.000440402 p[4,7] <= 1
 B_lb_0,_6: 0.262144 p[0,6] + 0.3670016000000036 p[0,7] + 0.0524288 p[1,6]
   + 0.0734003200000079 p[1,7] + 0.0104857600000011 p[2,6]
   + 0.0146800639999994 p[2,7] + 0.00209715199999991 p[3,6]
   + 0.00293601280000015 p[3,7] + 4.1943040000002137e-04 p[4,6]
   + 5.8720255999997683e-04 p[4,7] >= -0.053203125
 B_ub_0,_6: 0.262144 p[0,6] + 0.3670016000000036 p[0,7] + 0.0524288 p[1,6]
   + 0.0734003200000079 p[1,7] + 0.0104857600000011 p[2,6]
   + 0.0146800639999994 p[2,7] + 0.00209715199999991 p[3,6]
   + 0.00293601280000015 p[3,7] + 4.1943040000002137e-04 p[4,6]
   + 5.8720255999997683e-04 p[4,7] <= 1
 B_lb_1,_0: 0.8 p[1,0] + 0.16 p[1,1] + 0.032 p[1,2] + 0.0064 p[1,3]
   + 0.00128 p[1,4] + 0.000256 p[1,5] + 5.12e-05 p[1,6] + 1.024e-05 p[1,7]
   + 0.32 p[2,0] + 0.064 p[2,1] + 0.0128 p[2,2] + 0.00256 p[2,3]
   + 0.000512 p[2,4] + 0.0001024 p[2,5] + 2.048e-05 p[2,6]
   + 4.096e-06 p[2,7] + 0.096 p[3,0] + 0.0192 p[3,1] + 0.00384 p[3,2]
   + 0.000768 p[3,3] + 0.0001536 p[3,4] + 3.072e-05 p[3,5]
   + 6.144e-06 p[3,6] + 1.2288e-06 p[3,7] + 0.0256 p[4,0] + 0.00512 p[4,1]
   + 0.001024 p[4,2] + 0.0002048 p[4,3] + 4.096e-05 p[4,4]
   + 8.192e-06 p[4,5] + 1.6384e-06 p[4,6] + 3.2768e-07 p[4,7]
   >= 0.110791875
 B_ub_1,_0: 0.8 p[1,0] + 0.16 p[1,1] + 0.032 p[1,2] + 0.0064 p[1,3]
   + 0.00128 p[1,4] + 0.000256 p[1,5] + 5.12e-05 p[1,6] + 1.024e-05 p[1,7]
   + 0.32 p[2,0] + 0.064 p[2,1] + 0.0128 p[2,2] + 0.00256 p[2,3]
   + 0.000512 p[2,4] + 0.0001024 p[2,5] + 2.048e-05 p[2,6]
   + 4.096e-06 p[2,7] + 0.096 p[3,0] + 0.0192 p[3,1] + 0.00384 p[3,2]
   + 0.000768 p[3,3] + 0.0001536 p[3,4] + 3.072e-05 p[3,5]
   + 6.144e-06 p[3,6] + 1.2288e-06 p[3,7] + 0.0256 p[4,0] + 0.00512 p[4,1]
   + 0.001024 p[4,2] + 0.0002048 p[4,3] + 4.096e-05 p[4,4]
   + 8.192e-06 p[4,5] + 1.6384e-06 p[4,6] + 3.2768e-07 p[4,7] <= 0.1846
 B_lb_1,_1: 0.64 p[1,1] + 0.256 p[1,2] + 0.0768 p[1,3] + 0.02048 p[1,4]
   + 0.00512 p[1,5] + 0.0012288 p[1,6] + 0.00028672 p[1,7] + 0.256 p[2,1]
   + 0.1024 p[2,2] + 0.03072 p[2,3] + 0.008192 p[2,4] + 0.002048 p[2,5]
   + 0.00049152 p[2,6] + 0.000114688 p[2,7] + 0.0768 p[3,1]
   + 0.03072 p[3,2] + 0.009216 p[3,3] + 0.0024576 p[3,4] + 0.0006144 p[3,5]
   + 0.000147456 p[3,6] + 3.44064e-05 p[3,7] + 0.02048 p[4,1]
   + 0.008192 p[4,2] + 0.0024576 p[4,3] + 0.00065536 p[4,4]
   + 0.00016384 p[4,5] + 3.93216e-05 p[4,6] + 9.17504e-06 p[4,7]
   >= 0.056596875
 B_ub_1,_1: 0.64 p[1,1] + 0.256 p[1,2] + 0.0768 p[1,3] + 0.02048 p[1,4]
   + 0.00512 p[1,5] + 0.0012288 p[1,6] + 0.00028672 p[1,7] + 0.256 p[2,1]
   + 0.1024 p[2,2] + 0.03072 p[2,3] + 0.008192 p[2,4] + 0.002048 p[2,5]
   + 0.00049152 p[2,6] + 0.000114688 p[2,7] + 0.0768 p[3,1]
   + 0.03072 p[3,2] + 0.009216 p[3,3] + 0.0024576 p[3,4] + 0.0006144 p[3,5]
   + 0.000147456 p[3,6] + 3.44064e-05 p[3,7] + 0.02048 p[4,1]
   + 0.008192 p[4,2] + 0.0024576 p[4,3] + 0.00065536 p[4,4]
   + 0.00016384 p[4,5] + 3.93216e-05 p[4,6] + 9.17504e-06 p[4,7] <= 0.1278
 B_lb_1,_2: 0.512 p[1,2] + 0.3072 p[1,3] + 0.12288 p[1,4] + 0.04096 p[1,5]
   + 0.012288 p[1,6] + 0.00344064 p[1,7] + 0.2048 p[2,2] + 0.12288 p[2,3]
   + 0.049152 p[2,4] + 0.016384 p[2,5] + 0.0049152 p[2,6]
   + 0.00137625599999994 p[2,7] + 0.06144 p[3,2] + 0.036864 p[3,3]
   + 0.0147456 p[3,4] + 0.0049152 p[3,5] + 0.00147456 p[3,6]
   + 4.1287680000002104e-04 p[3,7] + 0.016384 p[4,2] + 0.0098304 p[4,3]
   + 0.00393216 p[4,4] + 0.00131072 p[4,5] + 0.000393216 p[4,6]
   + 1.1010047999999566e-04 p[4,7] >= -0.019603125
 B_ub_1,_2: 0.512 p[1,2] + 0.3072 p[1,3] + 0.12288 p[1,4] + 0.04096 p[1,5]
   + 0.012288 p[1,6] + 0.00344064 p[1,7] + 0.2048 p[2,2] + 0.12288 p[2,3]
   + 0.049152 p[2,4] + 0.016384 p[2,5] + 0.0049152 p[2,6]
   + 0.00137625599999994 p[2,7] + 0.06144 p[3,2] + 0.036864 p[3,3]
   + 0.0147456 p[3,4] + 0.0049152 p[3,5] + 0.00147456 p[3,6]
   + 4.1287680000002104e-04 p[3,7] + 0.016384 p[4,2] + 0.0098304 p[4,3]
   + 0.00393216 p[4,4] + 0.00131072 p[4,5] + 0.000393216 p[4,6]
   + 1.1010047999999566e-04 p[4,7] <= 0.0442
 B_lb_1,_3: 0.4096 p[1,3] + 0.32768 p[1,4] + 0.16384 p[1,5]
   + 0.065536 p[1,6] + 0.0229376 p[1,7] + 0.16384 p[2,3] + 0.131072 p[2,4]
   + 0.065536 p[2,5] + 0.0262144 p[2,6] + 0.00917504 p[2,7]
   + 0.049152 p[3,3] + 0.0393216 p[3,4] + 0.0196608 p[3,5]
   + 0.00786432 p[3,6] + 0.00275251200000014 p[3,7] + 0.0131072 p[4,3]
   + 0.0104857600000011 p[4,4] + 0.00524288 p[4,5]
   + 0.00209715200000011 p[4,6] + 7.3400319999997112e-04 p[4,7]
   >= -0.046803125
 B_ub_1,_3: 0.4096 p[1,3] + 0.32768 p[1,4] + 0.16384 p[1,5]
   + 0.065536 p[1,6] + 0.0229376 p[1,7] + 0.16384 p[2,3] + 0.131072 p[2,4]
   + 0.065536 p[2,5] + 0.0262144 p[2,6] + 0.00917504 p[2,7]
   + 0.049152 p[3,3] + 0.0393216 p[3,4] + 0.0196608 p[3,5]
   + 0.00786432 p[3,6] + 0.00275251200000014 p[3,7] + 0.0131072 p[4,3]
   + 0.0104857600000011 p[4,4] + 0.00524288 p[4,5]
   + 0.00209715200000011 p[4,6] + 7.3400319999997112e-04 p[4,7] <= 0.0114
 B_lb_1,_4: 0.32768 p[1,4] + 0.32768 p[1,5] + 0.196608 p[1,6]
   + 0.0917504 p[1,7] + 0.131072 p[2,4] + 0.131072 p[2,5]
   + 0.0786432 p[2,6] + 0.0367001599999985 p[2,7] + 0.0393216 p[3,4]
   + 0.0393216 p[3,5] + 0.023592959999999 p[3,6]
   + 0.0110100480000006 p[3,7] + 0.0104857600000011 p[4,4]
   + 0.0104857599999996 p[4,5] + 0.00629145600000032 p[4,6]
   + 0.00293601279999988 p[4,7] >= -0.053203125
 B_ub_1,_4: 0.32768 p[1,4] + 0.32768 p[1,5] + 0.196608 p[1,6]
   + 0.0917504 p[1,7] + 0.131072 p[2,4] + 0.131072 p[2,5]
   + 0.0786432 p[2,6] + 0.0367001599999985 p[2,7] + 0.0393216 p[3,4]
   + 0.0393216 p[3,5] + 0.023592959999999 p[3,6]
   + 0.0110100480000006 p[3,7] + 0.0104857600000011 p[4,4]
   + 0.0104857599999996 p[4,5] + 0.00629145600000032 p[4,6]
   + 0.00293601279999988 p[4,7] <= 1
 B_lb_1,_5: 0.262144 p[1,5] + 0.3145728000000031 p[1,6]
   + 0.2202009600000239 p[1,7] + 0.104857600000001 p[2,5]
   + 0.1258291200000136 p[2,6] + 0.0880803839999963 p[2,7]
   + 0.0314572800000034 p[3,5] + 0.0377487359999984 p[3,6]
   + 0.0264241152000013 p[3,7] + 0.00838860799999965 p[4,5]
   + 0.0100663296000005 p[4,6] + 0.00704643071999972 p[4,7]
   >= -0.053203125
 B_ub_1,_5: 0.262144 p[1,5] + 0.3145728000000031 p[1,6]
   + 0.2202009600000239 p[1,7] + 0.104857600000001 p[2,5]
   + 0.1258291200000136 p[2,6] + 0.0880803839999963 p[2,7]
   + 0.0314572800000034 p[3,5] + 0.0377487359999984 p[3,6]
   + 0.0264241152000013 p[3,7] + 0.00838860799999965 p[4,5]
   + 0.0100663296000005 p[4,6] + 0.00704643071999972 p[4,7] <= 1
 B_lb_1,_6: 0.209715200000002 p[1,6] + 0.2936012800000318 p[1,7]
   + 0.0838860800000091 p[2,6] + 0.1174405119999951 p[2,7]
   + 0.025165823999999 p[3,6] + 0.0352321536000018 p[3,7]
   + 0.00671088640000034 p[4,6] + 0.00939524095999963 p[4,7]
   >= -0.053203125
 B_ub_1,_6: 0.209715200000002 p[1,6] + 0.2936012800000318 p[1,7]
   + 0.0838860800000091 p[2,6] + 0.1174405119999951 p[2,7]
   + 0.025165823999999 p[3,6] + 0.0352321536000018 p[3,7]
   + 0.00671088640000034 p[4,6] + 0.00939524095999963 p[4,7] <= 1
 B_lb_2,_0: 0.64 p[2,0] + 0.128 p[2,1] + 0.0256 p[2,2] + 0.00512 p[2,3]
   + 0.001024 p[2,4] + 0.0002048 p[2,5] + 4.096e-05 p[2,6]
   + 8.192e-06 p[2,7] + 0.384 p[3,0] + 0.0768 p[3,1] + 0.01536 p[3,2]
   + 0.003072 p[3,3] + 0.0006144 p[3,4] + 0.00012288 p[3,5]
   + 2.4576e-05 p[3,6] + 4.9152e-06 p[3,7] + 0.1536 p[4,0] + 0.03072 p[4,1]
   + 0.006144 p[4,2] + 0.0012288 p[4,3] + 0.00024576 p[4,4]
   + 4.9152e-05 p[4,5] + 9.8304e-06 p[4,6] + 1.96608e-06 p[4,7]
   >= 0.00439687500000002
 B_ub_2,_0: 0.64 p[2,0] + 0.128 p[2,1] + 0.0256 p[2,2] + 0.00512 p[2,3]
   + 0.001024 p[2,4] + 0.0002048 p[2,5] + 4.096e-05 p[2,6]
   + 8.192e-06 p[2,7] + 0.384 p[3,0] + 0.0768 p[3,1] + 0.01536 p[3,2]
   + 0.003072 p[3,3] + 0.0006144 p[3,4] + 0.00012288 p[3,5]
   + 2.4576e-05 p[3,6] + 4.9152e-06 p[3,7] + 0.1536 p[4,0] + 0.03072 p[4,1]
   + 0.006144 p[4,2] + 0.0012288 p[4,3] + 0.00024576 p[4,4]
   + 4.9152e-05 p[4,5] + 9.8304e-06 p[4,6] + 1.96608e-06 p[4,7] <= 0.0712
 B_lb_2,_1: 0.512 p[2,1] + 0.2048 p[2,2] + 0.06144 p[2,3] + 0.016384 p[2,4]
   + 0.004096 p[2,5] + 0.00098304 p[2,6] + 0.000229376 p[2,7]
   + 0.3072 p[3,1] + 0.12288 p[3,2] + 0.036864 p[3,3] + 0.0098304 p[3,4]
   + 0.0024576 p[3,5] + 0.000589824 p[3,6] + 1.3762560000000701e-04 p[3,7]
   + 0.12288 p[4,1] + 0.049152 p[4,2] + 0.0147456 p[4,3]
   + 0.00393216 p[4,4] + 0.00098304 p[4,5] + 2.3592960000001203e-04 p[4,6]
   + 5.50502e-05 p[4,7] >= -0.017603125
 B_ub_2,_1: 0.512 p[2,1] + 0.2048 p[2,2] + 0.06144 p[2,3] + 0.016384 p[2,4]
   + 0.004096 p[2,5] + 0.00098304 p[2,6] + 0.000229376 p[2,7]
   + 0.3072 p[3,1] + 0.12288 p[3,2] + 0.036864 p[3,3] + 0.0098304 p[3,4]
   + 0.0024576 p[3,5] + 0.000589824 p[3,6] + 1.3762560000000701e-04 p[3,7]
   + 0.12288 p[4,1] + 0.049152 p[4,2] + 0.0147456 p[4,3]
   + 0.00393216 p[4,4] + 0.00098304 p[4,5] + 2.3592960000001203e-04 p[4,6]
   + 5.50502e-05 p[4,7] <= 0.0466
 B_lb_2,_2: 0.4096 p[2,2] + 0.24576 p[2,3] + 0.098304 p[2,4]
   + 0.032768 p[2,5] + 0.0098304 p[2,6] + 0.00275251199999989 p[2,7]
   + 0.24576 p[3,2] + 0.147456 p[3,3] + 0.0589824 p[3,4] + 0.0196608 p[3,5]
   + 0.00589824 p[3,6] + 0.00165150720000008 p[3,7] + 0.098304 p[4,2]
   + 0.0589824 p[4,3] + 0.0235929600000026 p[4,4] + 0.00786432 p[4,5]
   + 0.00235929600000012 p[4,6] + 6.6060287999997408e-04 p[4,7]
   >= -0.044803125
 B_ub_2,_2: 0.4096 p[2,2] + 0.24576 p[2,3] + 0.098304 p[2,4]
   + 0.032768 p[2,5] + 0.0098304 p[2,6] + 0.00275251199999989 p[2,7]
   + 0.24576 p[3,2] + 0.147456 p[3,3] + 0.0589824 p[3,4] + 0.0196608 p[3,5]
   + 0.00589824 p[3,6] + 0.00165150720000008 p[3,7] + 0.098304 p[4,2]
   + 0.0589824 p[4,3] + 0.0235929600000026 p[4,4] + 0.00786432 p[4,5]
   + 0.00235929600000012 p[4,6] + 6.6060287999997408e-04 p[4,7] <= 0.0142
 B_lb_2,_3: 0.32768 p[2,3] + 0.262144 p[2,4] + 0.131072 p[2,5]
   + 0.0524288 p[2,6] + 0.0183500799999992 p[2,7] + 0.196608 p[3,3]
   + 0.1572864000000015 p[3,4] + 0.0786432 p[3,5]
   + 0.0314572799999987 p[3,6] + 0.0110100480000006 p[3,7]
   + 0.0786432 p[4,3] + 0.0629145600000068 p[4,4]
   + 0.0314572799999987 p[4,5] + 0.0125829120000006 p[4,6]
   + 0.00440401919999983 p[4,7] >= -0.052203125
 B_ub_2,_3: 0.32768 p[2,3] + 0.262144 p[2,4] + 0.131072 p[2,5]
   + 0.0524288 p[2,6] + 0.0183500799999992 p[2,7] + 0.196608 p[3,3]
   + 0.1572864000000015 p[3,4] + 0.0786432 p[3,5]
   + 0.0314572799999987 p[3,6] + 0.0110100480000006 p[3,7]
   + 0.0786432 p[4,3] + 0.0629145600000068 p[4,4]
   + 0.0314572799999987 p[4,5] + 0.0125829120000006 p[4,6]
   + 0.00440401919999983 p[4,7] <= 0.0036
 B_lb_2,_4: 0.262144 p[2,4] + 0.262144 p[2,5] + 0.157286400000017 p[2,6]
   + 0.073400319999997 p[2,7] + 0.1572864000000015 p[3,4]
   + 0.157286400000017 p[3,5] + 0.0943718399999961 p[3,6]
   + 0.0440401920000022 p[3,7] + 0.0629145600000068 p[4,4]
   + 0.0629145599999974 p[4,5] + 0.0377487360000019 p[4,6]
   + 0.0176160767999993 p[4,7] >= -0.053203125
 B_ub_2,_4: 0.262144 p[2,4] + 0.262144 p[2,5] + 0.157286400000017 p[2,6]
   + 0.073400319999997 p[2,7] + 0.1572864000000015 p[3,4]
   + 0.157286400000017 p[3,5] + 0.0943718399999961 p[3,6]
   + 0.0440401920000022 p[3,7] + 0.0629145600000068 p[4,4]
   + 0.0629145599999974 p[4,5] + 0.0377487360000019 p[4,6]
   + 0.0176160767999993 p[4,7] <= 1
 B_lb_2,_5: 0.209715200000002 p[2,5] + 0.2516582400000273 p[2,6]
   + 0.1761607679999927 p[2,7] + 0.1258291200000136 p[3,5]
   + 0.1509949439999937 p[3,6] + 0.1056964608000054 p[3,7]
   + 0.0503316479999979 p[4,5] + 0.0603979776000031 p[4,6]
   + 0.0422785843199983 p[4,7] >= -0.053203125
 B_ub_2,_5: 0.209715200000002 p[2,5] + 0.2516582400000273 p[2,6]
   + 0.1761607679999927 p[2,7] + 0.1258291200000136 p[3,5]
   + 0.1509949439999937 p[3,6] + 0.1056964608000054 p[3,7]
   + 0.0503316479999979 p[4,5] + 0.0603979776000031 p[4,6]
   + 0.0422785843199983 p[4,7] <= 1
 B_lb_2,_6: 0.1677721600000182 p[2,6] + 0.2348810239999903 p[2,7]
   + 0.1006632959999958 p[3,6] + 0.1409286144000072 p[3,7]
   + 0.0402653184000021 p[4,6] + 0.0563714457599978 p[4,7] >= -0.053203125
 B_ub_2,_6: 0.1677721600000182 p[2,6] + 0.2348810239999903 p[2,7]
   + 0.1006632959999958 p[3,6] + 0.1409286144000072 p[3,7]
   + 0.0402653184000021 p[4,6] + 0.0563714457599978 p[4,7] <= 1
 B_lb_3,_0: 0.512 p[3,0] + 0.1024 p[3,1] + 0.02048 p[3,2] + 0.004096 p[3,3]
   + 0.0008192 p[3,4] + 0.00016384 p[3,5] + 3.2768e-05 p[3,6]
   + 6.5536e-06 p[3,7] + 0.4096 p[4,0] + 0.08192 p[4,1] + 0.016384 p[4,2]
   + 0.0032768 p[4,3] + 0.00065536 p[4,4] + 0.000131072 p[4,5]
   + 2.62144e-05 p[4,6] + 5.24288e-06 p[4,7] >= -0.041003125
 B_ub_3,_0: 0.512 p[3,0] + 0.1024 p[3,1] + 0.02048 p[3,2] + 0.004096 p[3,3]
   + 0.0008192 p[3,4] + 0.00016384 p[3,5] + 3.2768e-05 p[3,6]
   + 6.5536e-06 p[3,7] + 0.4096 p[4,0] + 0.08192 p[4,1] + 0.016384 p[4,2]
   + 0.0032768 p[4,3] + 0.00065536 p[4,4] + 0.000131072 p[4,5]
   + 2.62144e-05 p[4,6] + 5.24288e-06 p[4,7] <= 0.019
 B_lb_3,_1: 0.4096 p[3,1] + 0.16384 p[3,2] + 0.049152 p[3,3]
   + 0.0131072 p[3,4] + 0.0032768 p[3,5] + 0.000786432 p[3,6]
   + 1.8350080000000934e-04 p[3,7] + 0.32768 p[4,1] + 0.131072 p[4,2]
   + 0.0393216 p[4,3] + 0.0104857600000011 p[4,4] + 0.00262144 p[4,5]
   + 6.2914560000003209e-04 p[4,6] + 1.4680063999999421e-04 p[4,7]
   >= -0.047803125
 B_ub_3,_1: 0.4096 p[3,1] + 0.16384 p[3,2] + 0.049152 p[3,3]
   + 0.0131072 p[3,4] + 0.0032768 p[3,5] + 0.000786432 p[3,6]
   + 1.8350080000000934e-04 p[3,7] + 0.32768 p[4,1] + 0.131072 p[4,2]
   + 0.0393216 p[4,3] + 0.0104857600000011 p[4,4] + 0.00262144 p[4,5]
   + 6.2914560000003209e-04 p[4,6] + 1.4680063999999421e-04 p[4,7]
   <= 0.0102
 B_lb_3,_2: 0.32768 p[3,2] + 0.196608 p[3,3] + 0.0786432 p[3,4]
   + 0.0262144 p[3,5] + 0.00786432 p[3,6] + 0.00220200960000011 p[3,7]
   + 0.262144 p[4,2] + 0.1572864000000015 p[4,3]
   + 0.0629145600000068 p[4,4] + 0.0209715199999991 p[4,5]
   + 0.00629145600000032 p[4,6] + 0.00176160767999993 p[4,7]
   >= -0.053203125
 B_ub_3,_2: 0.32768 p[3,2] + 0.196608 p[3,3] + 0.0786432 p[3,4]
   + 0.0262144 p[3,5] + 0.00786432 p[3,6] + 0.00220200960000011 p[3,7]
   + 0.262144 p[4,2] + 0.1572864000000015 p[4,3]
   + 0.0629145600000068 p[4,4] + 0.0209715199999991 p[4,5]
   + 0.00629145600000032 p[4,6] + 0.00176160767999993 p[4,7] <= 1
 B_lb_3,_3: 0.262144 p[3,3] + 0.209715200000002 p[3,4]
   + 0.1048576000000114 p[3,5] + 0.0419430399999983 p[3,6]
   + 0.0146800640000007 p[3,7] + 0.209715200000002 p[4,3]
   + 0.1677721600000182 p[4,4] + 0.0838860799999965 p[4,5]
   + 0.0335544320000017 p[4,6] + 0.0117440511999995 p[4,7] >= -0.053203125
 B_ub_3,_3: 0.262144 p[3,3] + 0.209715200000002 p[3,4]
   + 0.1048576000000114 p[3,5] + 0.0419430399999983 p[3,6]
   + 0.0146800640000007 p[3,7] + 0.209715200000002 p[4,3]
   + 0.1677721600000182 p[4,4] + 0.0838860799999965 p[4,5]
   + 0.0335544320000017 p[4,6] + 0.0117440511999995 p[4,7] <= 1
 B_lb_3,_4: 0.209715200000002 p[3,4] + 0.2097152000000228 p[3,5]
   + 0.1258291199999948 p[3,6] + 0.058720256000003 p[3,7]
   + 0.1677721600000182 p[4,4] + 0.167772159999993 p[4,5]
   + 0.1006632960000051 p[4,6] + 0.0469762047999982 p[4,7] >= -0.053203125
 B_ub_3,_4: 0.209715200000002 p[3,4] + 0.2097152000000228 p[3,5]
   + 0.1258291199999948 p[3,6] + 0.058720256000003 p[3,7]
   + 0.1677721600000182 p[4,4] + 0.167772159999993 p[4,5]
   + 0.1006632960000051 p[4,6] + 0.0469762047999982 p[4,7] <= 1
 B_lb_3,_5: 0.1677721600000182 p[3,5] + 0.2013265919999916 p[3,6]
   + 0.1409286144000072 p[3,7] + 0.1342177279999944 p[4,5]
   + 0.1610612736000082 p[4,6] + 0.1127428915199956 p[4,7] >= -0.053203125
 B_ub_3,_5: 0.1677721600000182 p[3,5] + 0.2013265919999916 p[3,6]
   + 0.1409286144000072 p[3,7] + 0.1342177279999944 p[4,5]
   + 0.1610612736000082 p[4,6] + 0.1127428915199956 p[4,7] <= 1
 B_lb_3,_6: 0.1342177279999944 p[3,6] + 0.1879048192000096 p[3,7]
   + 0.1073741824000055 p[4,6] + 0.1503238553599941 p[4,7] >= -0.053203125
 B_ub_3,_6: 0.1342177279999944 p[3,6] + 0.1879048192000096 p[3,7]
   + 0.1073741824000055 p[4,6] + 0.1503238553599941 p[4,7] <= 1
 B_marginal_lb_0: p1[0] + 0.2 p1[1] + 0.04 p1[2] + 0.008 p1[3]
   + 0.0016 p1[4] >= 0.3183
 B_marginal_ub_0: p1[0] + 0.2 p1[1] + 0.04 p1[2] + 0.008 p1[3]
   + 0.0016 p1[4] <= 0.5212
 B_marginal_lb_1: 0.8 p1[1] + 0.32 p1[2] + 0.096 p1[3] + 0.0256 p1[4]
   >= 0.1549
 B_marginal_ub_1: 0.8 p1[1] + 0.32 p1[2] + 0.096 p1[3] + 0.0256 p1[4]
   <= 0.356
 B_marginal_lb_2: 0.64 p1[2] + 0.384 p1[3] + 0.1536 p1[4] >= -0.0647
 B_marginal_ub_2: 0.64 p1[2] + 0.384 p1[3] + 0.1536 p1[4] <= 0.1286
 B_marginal_lb_3: 0.512 p1[3] + 0.4096 p1[4] >= -0.1543
 B_marginal_ub_3: 0.512 p1[3] + 0.4096 p1[4] <= 0.0294
 B_marginal_lb_0: p2[0] + 0.2 p2[1] + 0.04 p2[2] + 0.008 p2[3]
   + 0.0016 p2[4] + 0.00032 p2[5] + 6.4e-05 p2[6] + 1.28e-05 p2[7]
   >= 0.382675
 B_marginal_ub_0: p2[0] + 0.2 p2[1] + 0.04 p2[2] + 0.008 p2[3]
   + 0.0016 p2[4] + 0.00032 p2[5] + 6.4e-05 p2[6] + 1.28e-05 p2[7]
   <= 0.5206
 B_marginal_lb_1: 0.8 p2[1] + 0.32 p2[2] + 0.096 p2[3] + 0.0256 p2[4]
   + 0.0064 p2[5] + 0.001536 p2[6] + 0.0003584 p2[7] >= 0.225275
 B_marginal_ub_1: 0.8 p2[1] + 0.32 p2[2] + 0.096 p2[3] + 0.0256 p2[4]
   + 0.0064 p2[5] + 0.001536 p2[6] + 0.0003584 p2[7] <= 0.362
 B_marginal_lb_2: 0.64 p2[2] + 0.384 p2[3] + 0.1536 p2[4] + 0.0512 p2[5]
   + 0.01536 p2[6] + 0.0043008 p2[7] >= -0.00913
 B_marginal_ub_2: 0.64 p2[2] + 0.384 p2[3] + 0.1536 p2[4] + 0.0512 p2[5]
   + 0.01536 p2[6] + 0.0043008 p2[7] <= 0.118
 B_marginal_lb_3: 0.512 p2[3] + 0.4096 p2[4] + 0.2048 p2[5] + 0.08192 p2[6]
   + 0.028672 p2[7] >= -0.085525
 B_marginal_ub_3: 0.512 p2[3] + 0.4096 p2[4] + 0.2048 p2[5] + 0.08192 p2[6]
   + 0.028672 p2[7] <= 0.0338
 B_marginal_lb_4: 0.4096 p2[4] + 0.4096 p2[5] + 0.24576 p2[6]
   + 0.114688 p2[7] >= -0.106725
 B_marginal_ub_4: 0.4096 p2[4] + 0.4096 p2[5] + 0.24576 p2[6]
   + 0.114688 p2[7] <= 0.0072
 B_marginal_lb_5: 0.32768 p2[5] + 0.393216 p2[6] + 0.2752512000000027 p2[7]
   >= -0.110125
 B_marginal_ub_5: 0.32768 p2[5] + 0.393216 p2[6] + 0.2752512000000027 p2[7]
   <= 1
 B_marginal_lb_6: 0.262144 p2[6] + 0.3670016000000036 p2[7] >= -0.110125
 B_marginal_ub_6: 0.262144 p2[6] + 0.3670016000000036 p2[7] <= 1
 frechet_lb_0,_0: - p[0,0] + p1[0] + p2[0] <= 1
 frechet_ub_x1_0: p[0,0] - p1[0] <= 0
 frechet_ub_x2_0: p[0,0] - p2[0] <= 0
 frechet_lb_0,_1: - p[0,1] + p1[0] + p2[1] <= 1
 frechet_ub_x1_0: p[0,1] - p1[0] <= 0
 frechet_ub_x2_1: p[0,1] - p2[1] <= 0
 frechet_lb_0,_2: - p[0,2] + p1[0] + p2[2] <= 1
 frechet_ub_x1_0: p[0,2] - p1[0] <= 0
 frechet_ub_x2_2: p[0,2] - p2[2] <= 0
 frechet_lb_0,_3: - p[0,3] + p1[0] + p2[3] <= 1
 frechet_ub_x1_0: p[0,3] - p1[0] <= 0
 frechet_ub_x2_3: p[0,3] - p2[3] <= 0
 frechet_lb_0,_4: - p[0,4] + p1[0] + p2[4] <= 1
 frechet_ub_x1_0: p[0,4] - p1[0] <= 0
 frechet_ub_x2_4: p[0,4] - p2[4] <= 0
 frechet_lb_0,_5: - p[0,5] + p1[0] + p2[5] <= 1
 frechet_ub_x1_0: p[0,5] - p1[0] <= 0
 frechet_ub_x2_5: p[0,5] - p2[5] <= 0
 frechet_lb_0,_6: - p[0,6] + p1[0] + p2[6] <= 1
 frechet_ub_x1_0: p[0,6] - p1[0] <= 0
 frechet_ub_x2_6: p[0,6] - p2[6] <= 0
 frechet_lb_0,_7: - p[0,7] + p1[0] + p2[7] <= 1
 frechet_ub_x1_0: p[0,7] - p1[0] <= 0
 frechet_ub_x2_7: p[0,7] - p2[7] <= 0
 frechet_lb_1,_0: - p[1,0] + p1[1] + p2[0] <= 1
 frechet_ub_x1_1: p[1,0] - p1[1] <= 0
 frechet_ub_x2_0: p[1,0] - p2[0] <= 0
 frechet_lb_1,_1: - p[1,1] + p1[1] + p2[1] <= 1
 frechet_ub_x1_1: p[1,1] - p1[1] <= 0
 frechet_ub_x2_1: p[1,1] - p2[1] <= 0
 frechet_lb_1,_2: - p[1,2] + p1[1] + p2[2] <= 1
 frechet_ub_x1_1: p[1,2] - p1[1] <= 0
 frechet_ub_x2_2: p[1,2] - p2[2] <= 0
 frechet_lb_1,_3: - p[1,3] + p1[1] + p2[3] <= 1
 frechet_ub_x1_1: p[1,3] - p1[1] <= 0
 frechet_ub_x2_3: p[1,3] - p2[3] <= 0
 frechet_lb_1,_4: - p[1,4] + p1[1] + p2[4] <= 1
 frechet_ub_x1_1: p[1,4] - p1[1] <= 0
 frechet_ub_x2_4: p[1,4] - p2[4] <= 0
 frechet_lb_1,_5: - p[1,5] + p1[1] + p2[5] <= 1
 frechet_ub_x1_1: p[1,5] - p1[1] <= 0
 frechet_ub_x2_5: p[1,5] - p2[5] <= 0
 frechet_lb_1,_6: - p[1,6] + p1[1] + p2[6] <= 1
 frechet_ub_x1_1: p[1,6] - p1[1] <= 0
 frechet_ub_x2_6: p[1,6] - p2[6] <= 0
 frechet_lb_1,_7: - p[1,7] + p1[1] + p2[7] <= 1
 frechet_ub_x1_1: p[1,7] - p1[1] <= 0
 frechet_ub_x2_7: p[1,7] - p2[7] <= 0
 frechet_lb_2,_0: - p[2,0] + p1[2] + p2[0] <= 1
 frechet_ub_x1_2: p[2,0] - p1[2] <= 0
 frechet_ub_x2_0: p[2,0] - p2[0] <= 0
 frechet_lb_2,_1: - p[2,1] + p1[2] + p2[1] <= 1
 frechet_ub_x1_2: p[2,1] - p1[2] <= 0
 frechet_ub_x2_1: p[2,1] - p2[1] <= 0
 frechet_lb_2,_2: - p[2,2] + p1[2] + p2[2] <= 1
 frechet_ub_x1_2: p[2,2] - p1[2] <= 0
 frechet_ub_x2_2: p[2,2] - p2[2] <= 0
 frechet_lb_2,_3: - p[2,3] + p1[2] + p2[3] <= 1
 frechet_ub_x1_2: p[2,3] - p1[2] <= 0
 frechet_ub_x2_3: p[2,3] - p2[3] <= 0
 frechet_lb_2,_4: - p[2,4] + p1[2] + p2[4] <= 1
 frechet_ub_x1_2: p[2,4] - p1[2] <= 0
 frechet_ub_x2_4: p[2,4] - p2[4] <= 0
 frechet_lb_2,_5: - p[2,5] + p1[2] + p2[5] <= 1
 frechet_ub_x1_2: p[2,5] - p1[2] <= 0
 frechet_ub_x2_5: p[2,5] - p2[5] <= 0
 frechet_lb_2,_6: - p[2,6] + p1[2] + p2[6] <= 1
 frechet_ub_x1_2: p[2,6] - p1[2] <= 0
 frechet_ub_x2_6: p[2,6] - p2[6] <= 0
 frechet_lb_2,_7: - p[2,7] + p1[2] + p2[7] <= 1
 frechet_ub_x1_2: p[2,7] - p1[2] <= 0
 frechet_ub_x2_7: p[2,7] - p2[7] <= 0
 frechet_lb_3,_0: - p[3,0] + p1[3] + p2[0] <= 1
 frechet_ub_x1_3: p[3,0] - p1[3] <= 0
 frechet_ub_x2_0: p[3,0] - p2[0] <= 0
 frechet_lb_3,_1: - p[3,1] + p1[3] + p2[1] <= 1
 frechet_ub_x1_3: p[3,1] - p1[3] <= 0
 frechet_ub_x2_1: p[3,1] - p2[1] <= 0
 frechet_lb_3,_2: - p[3,2] + p1[3] + p2[2] <= 1
 frechet_ub_x1_3: p[3,2] - p1[3] <= 0
 frechet_ub_x2_2: p[3,2] - p2[2] <= 0
 frechet_lb_3,_3: - p[3,3] + p1[3] + p2[3] <= 1
 frechet_ub_x1_3: p[3,3] - p1[3] <= 0
 frechet_ub_x2_3: p[3,3] - p2[3] <= 0
 frechet_lb_3,_4: - p[3,4] + p1[3] + p2[4] <= 1
 frechet_ub_x1_3: p[3,4] - p1[3] <= 0
 frechet_ub_x2_4: p[3,4] - p2[4] <= 0
 frechet_lb_3,_5: - p[3,5] + p1[3] + p2[5] <= 1
 frechet_ub_x1_3: p[3,5] - p1[3] <= 0
 frechet_ub_x2_5: p[3,5] - p2[5] <= 0
 frechet_lb_3,_6: - p[3,6] + p1[3] + p2[6] <= 1
 frechet_ub_x1_3: p[3,6] - p1[3] <= 0
 frechet_ub_x2_6: p[3,6] - p2[6] <= 0
 frechet_lb_3,_7: - p[3,7] + p1[3] + p2[7] <= 1
 frechet_ub_x1_3: p[3,7] - p1[3] <= 0
 frechet_ub_x2_7: p[3,7] - p2[7] <= 0
 frechet_lb_4,_0: - p[4,0] + p1[4] + p2[0] <= 1
 frechet_ub_x1_4: p[4,0] - p1[4] <= 0
 frechet_ub_x2_0: p[4,0] - p2[0] <= 0
 frechet_lb_4,_1: - p[4,1] + p1[4] + p2[1] <= 1
 frechet_ub_x1_4: p[4,1] - p1[4] <= 0
 frechet_ub_x2_1: p[4,1] - p2[1] <= 0
 frechet_lb_4,_2: - p[4,2] + p1[4] + p2[2] <= 1
 frechet_ub_x1_4: p[4,2] - p1[4] <= 0
 frechet_ub_x2_2: p[4,2] - p2[2] <= 0
 frechet_lb_4,_3: - p[4,3] + p1[4] + p2[3] <= 1
 frechet_ub_x1_4: p[4,3] - p1[4] <= 0
 frechet_ub_x2_3: p[4,3] - p2[3] <= 0
 frechet_lb_4,_4: - p[4,4] + p1[4] + p2[4] <= 1
 frechet_ub_x1_4: p[4,4] - p1[4] <= 0
 frechet_ub_x2_4: p[4,4] - p2[4] <= 0
 frechet_lb_4,_5: - p[4,5] + p1[4] + p2[5] <= 1
 frechet_ub_x1_4: p[4,5] - p1[4] <= 0
 frechet_ub_x2_5: p[4,5] - p2[5] <= 0
 frechet_lb_4,_6: - p[4,6] + p1[4] + p2[6] <= 1
 frechet_ub_x1_4: p[4,6] - p1[4] <= 0
 frechet_ub_x2_6: p[4,6] - p2[6] <= 0
 frechet_lb_4,_7: - p[4,7] + p1[4] + p2[7] <= 1
 frechet_ub_x1_4: p[4,7] - p1[4] <= 0
 frechet_ub_x2_7: p[4,7] - p2[7] <= 0
 Distribution: p[0,0] + p[0,1] + p[0,2] + p[0,3] + p[0,4] + p[0,5] + p[0,6]
   + p[0,7] + p[1,0] + p[1,1] + p[1,2] + p[1,3] + p[1,4] + p[1,5] + p[1,6]
   + p[1,7] + p[2,0] + p[2,1] + p[2,2] + p[2,3] + p[2,4] + p[2,5] + p[2,6]
   + p[2,7] + p[3,0] + p[3,1] + p[3,2] + p[3,3] + p[3,4] + p[3,5] + p[3,6]
   + p[3,7] + p[4,0] + p[4,1] + p[4,2] + p[4,3] + p[4,4] + p[4,5] + p[4,6]
   + p[4,7] <= 1
 Distribution_x1: p1[0] + p1[1] + p1[2] + p1[3] + p1[4] <= 1
 Distribution_x2: p2[0] + p2[1] + p2[2] + p2[3] + p2[4] + p2[5] + p2[6]
   + p2[7] <= 1
 Equation_0,_0: [ - p[0,0] * k_tx_1 - p[0,0] * k_tx_2 + p[0,1] * k_deg_2
   + p[1,0] * k_deg_1 + p[1,1] * k_reg ] = 0
 Equation_0,_1: [ p[0,0] * k_tx_2 - p[0,1] * k_tx_1 - p[0,1] * k_tx_2
   - p[0,1] * k_deg_2 + 2 p[0,2] * k_deg_2 + p[1,1] * k_deg_1
   + 2 p[1,2] * k_reg ] = 0
 Equation_0,_2: [ p[0,1] * k_tx_2 - p[0,2] * k_tx_1 - p[0,2] * k_tx_2
   - 2 p[0,2] * k_deg_2 + 3 p[0,3] * k_deg_2 + p[1,2] * k_deg_1
   + 3 p[1,3] * k_reg ] = 0
 Equation_0,_3: [ p[0,2] * k_tx_2 - p[0,3] * k_tx_1 - p[0,3] * k_tx_2
   - 3 p[0,3] * k_deg_2 + 4 p[0,4] * k_deg_2 + p[1,3] * k_deg_1
   + 4 p[1,4] * k_reg ] = 0
 Equation_0,_4: [ p[0,3] * k_tx_2 - p[0,4] * k_tx_1 - p[0,4] * k_tx_2
   - 4 p[0,4] * k_deg_2 + 5 p[0,5] * k_deg_2 + p[1,4] * k_deg_1
   + 5 p[1,5] * k_reg ] = 0
 Equation_0,_5: [ p[0,4] * k_tx_2 - p[0,5] * k_tx_1 - p[0,5] * k_tx_2
   - 5 p[0,5] * k_deg_2 + 6 p[0,6] * k_deg_2 + p[1,5] * k_deg_1
   + 6 p[1,6] * k_reg ] = 0
 Equation_0,_6: [ p[0,5] * k_tx_2 - p[0,6] * k_tx_1 - p[0,6] * k_tx_2
   - 6 p[0,6] * k_deg_2 + 7 p[0,7] * k_deg_2 + p[1,6] * k_deg_1
   + 7 p[1,7] * k_reg ] = 0
 Equation_1,_0: [ p[0,0] * k_tx_1 - p[1,0] * k_tx_1 - p[1,0] * k_tx_2
   - p[1,0] * k_deg_1 + p[1,1] * k_deg_2 + 2 p[2,0] * k_deg_1
   + 2 p[2,1] * k_reg ] = 0
 Equation_1,_1: [ p[0,1] * k_tx_1 + p[1,0] * k_tx_2 - p[1,1] * k_tx_1
   - p[1,1] * k_tx_2 - p[1,1] * k_deg_1 - p[1,1] * k_deg_2 - p[1,1] * k_reg
   + 2 p[1,2] * k_deg_2 + 2 p[2,1] * k_deg_1 + 4 p[2,2] * k_reg ] = 0
 Equation_1,_2: [ p[0,2] * k_tx_1 + p[1,1] * k_tx_2 - p[1,2] * k_tx_1
   - p[1,2] * k_tx_2 - p[1,2] * k_deg_1 - 2 p[1,2] * k_deg_2
   - 2 p[1,2] * k_reg + 3 p[1,3] * k_deg_2 + 2 p[2,2] * k_deg_1
   + 6 p[2,3] * k_reg ] = 0
 Equation_1,_3: [ p[0,3] * k_tx_1 + p[1,2] * k_tx_2 - p[1,3] * k_tx_1
   - p[1,3] * k_tx_2 - p[1,3] * k_deg_1 - 3 p[1,3] * k_deg_2
   - 3 p[1,3] * k_reg + 4 p[1,4] * k_deg_2 + 2 p[2,3] * k_deg_1
   + 8 p[2,4] * k_reg ] = 0
 Equation_1,_4: [ p[0,4] * k_tx_1 + p[1,3] * k_tx_2 - p[1,4] * k_tx_1
   - p[1,4] * k_tx_2 - p[1,4] * k_deg_1 - 4 p[1,4] * k_deg_2
   - 4 p[1,4] * k_reg + 5 p[1,5] * k_deg_2 + 2 p[2,4] * k_deg_1
   + 10 p[2,5] * k_reg ] = 0
 Equation_1,_5: [ p[0,5] * k_tx_1 + p[1,4] * k_tx_2 - p[1,5] * k_tx_1
   - p[1,5] * k_tx_2 - p[1,5] * k_deg_1 - 5 p[1,5] * k_deg_2
   - 5 p[1,5] * k_reg + 6 p[1,6] * k_deg_2 + 2 p[2,5] * k_deg_1
   + 12 p[2,6] * k_reg ] = 0
 Equation_1,_6: [ p[0,6] * k_tx_1 + p[1,5] * k_tx_2 - p[1,6] * k_tx_1
   - p[1,6] * k_tx_2 - p[1,6] * k_deg_1 - 6 p[1,6] * k_deg_2
   - 6 p[1,6] * k_reg + 7 p[1,7] * k_deg_2 + 2 p[2,6] * k_deg_1
   + 14 p[2,7] * k_reg ] = 0
 Equation_2,_0: [ p[1,0] * k_tx_1 - p[2,0] * k_tx_1 - p[2,0] * k_tx_2
   - 2 p[2,0] * k_deg_1 + p[2,1] * k_deg_2 + 3 p[3,0] * k_deg_1
   + 3 p[3,1] * k_reg ] = 0
 Equation_2,_1: [ p[1,1] * k_tx_1 + p[2,0] * k_tx_2 - p[2,1] * k_tx_1
   - p[2,1] * k_tx_2 - 2 p[2,1] * k_deg_1 - p[2,1] * k_deg_2
   - 2 p[2,1] * k_reg + 2 p[2,2] * k_deg_2 + 3 p[3,1] * k_deg_1
   + 6 p[3,2] * k_reg ] = 0
 Equation_2,_2: [ p[1,2] * k_tx_1 + p[2,1] * k_tx_2 - p[2,2] * k_tx_1
   - p[2,2] * k_tx_2 - 2 p[2,2] * k_deg_1 - 2 p[2,2] * k_deg_2
   - 4 p[2,2] * k_reg + 3 p[2,3] * k_deg_2 + 3 p[3,2] * k_deg_1
   + 9 p[3,3] * k_reg ] = 0
 Equation_2,_3: [ p[1,3] * k_tx_1 + p[2,2] * k_tx_2 - p[2,3] * k_tx_1
   - p[2,3] * k_tx_2 - 2 p[2,3] * k_deg_1 - 3 p[2,3] * k_deg_2
   - 6 p[2,3] * k_reg + 4 p[2,4] * k_deg_2 + 3 p[3,3] * k_deg_1
   + 12 p[3,4] * k_reg ] = 0
 Equation_2,_4: [ p[1,4] * k_tx_1 + p[2,3] * k_tx_2 - p[2,4] * k_tx_1
   - p[2,4] * k_tx_2 - 2 p[2,4] * k_deg_1 - 4 p[2,4] * k_deg_2
   - 8 p[2,4] * k_reg + 5 p[2,5] * k_deg_2 + 3 p[3,4] * k_deg_1
   + 15 p[3,5] * k_reg ] = 0
 Equation_2,_5: [ p[1,5] * k_tx_1 + p[2,4] * k_tx_2 - p[2,5] * k_tx_1
   - p[2,5] * k_tx_2 - 2 p[2,5] * k_deg_1 - 5 p[2,5] * k_deg_2
   - 10 p[2,5] * k_reg + 6 p[2,6] * k_deg_2 + 3 p[3,5] * k_deg_1
   + 18 p[3,6] * k_reg ] = 0
 Equation_2,_6: [ p[1,6] * k_tx_1 + p[2,5] * k_tx_2 - p[2,6] * k_tx_1
   - p[2,6] * k_tx_2 - 2 p[2,6] * k_deg_1 - 6 p[2,6] * k_deg_2
   - 12 p[2,6] * k_reg + 7 p[2,7] * k_deg_2 + 3 p[3,6] * k_deg_1
   + 21 p[3,7] * k_reg ] = 0
 Equation_3,_0: [ p[2,0] * k_tx_1 - p[3,0] * k_tx_1 - p[3,0] * k_tx_2
   - 3 p[3,0] * k_deg_1 + p[3,1] * k_deg_2 + 4 p[4,0] * k_deg_1
   + 4 p[4,1] * k_reg ] = 0
 Equation_3,_1: [ p[2,1] * k_tx_1 + p[3,0] * k_tx_2 - p[3,1] * k_tx_1
   - p[3,1] * k_tx_2 - 3 p[3,1] * k_deg_1 - p[3,1] * k_deg_2
   - 3 p[3,1] * k_reg + 2 p[3,2] * k_deg_2 + 4 p[4,1] * k_deg_1
   + 8 p[4,2] * k_reg ] = 0
 Equation_3,_2: [ p[2,2] * k_tx_1 + p[3,1] * k_tx_2 - p[3,2] * k_tx_1
   - p[3,2] * k_tx_2 - 3 p[3,2] * k_deg_1 - 2 p[3,2] * k_deg_2
   - 6 p[3,2] * k_reg + 3 p[3,3] * k_deg_2 + 4 p[4,2] * k_deg_1
   + 12 p[4,3] * k_reg ] = 0
 Equation_3,_3: [ p[2,3] * k_tx_1 + p[3,2] * k_tx_2 - p[3,3] * k_tx_1
   - p[3,3] * k_tx_2 - 3 p[3,3] * k_deg_1 - 3 p[3,3] * k_deg_2
   - 9 p[3,3] * k_reg + 4 p[3,4] * k_deg_2 + 4 p[4,3] * k_deg_1
   + 16 p[4,4] * k_reg ] = 0
 Equation_3,_4: [ p[2,4] * k_tx_1 + p[3,3] * k_tx_2 - p[3,4] * k_tx_1
   - p[3,4] * k_tx_2 - 3 p[3,4] * k_deg_1 - 4 p[3,4] * k_deg_2
   - 12 p[3,4] * k_reg + 5 p[3,5] * k_deg_2 + 4 p[4,4] * k_deg_1
   + 20 p[4,5] * k_reg ] = 0
 Equation_3,_5: [ p[2,5] * k_tx_1 + p[3,4] * k_tx_2 - p[3,5] * k_tx_1
   - p[3,5] * k_tx_2 - 3 p[3,5] * k_deg_1 - 5 p[3,5] * k_deg_2
   - 15 p[3,5] * k_reg + 6 p[3,6] * k_deg_2 + 4 p[4,5] * k_deg_1
   + 24 p[4,6] * k_reg ] = 0
 Equation_3,_6: [ p[2,6] * k_tx_1 + p[3,5] * k_tx_2 - p[3,6] * k_tx_1
   - p[3,6] * k_tx_2 - 3 p[3,6] * k_deg_1 - 6 p[3,6] * k_deg_2
   - 18 p[3,6] * k_reg + 7 p[3,7] * k_deg_2 + 4 p[4,6] * k_deg_1
   + 28 p[4,7] * k_reg ] = 0
Bounds
 p[0,0] <= 1
 p[0,1] <= 1
 p[0,2] <= 1
 p[0,3] <= 1
 p[0,4] <= 1
 p[0,5] <= 1
 p[0,6] <= 1
 p[0,7] <= 1
 p[1,0] <= 1
 p[1,1] <= 1
 p[1,2] <= 1
 p[1,3] <= 1
 p[1,4] <= 1
 p[1,5] <= 1
 p[1,6] <= 1
 p[1,7] <= 1
 p[2,0] <= 1
 p[2,1] <= 1
 p[2,2] <= 1
 p[2,3] <= 1
 p[2,4] <= 1
 p[2,5] <= 1
 p[2,6] <= 1
 p[2,7] <= 1
 p[3,0] <= 1
 p[3,1] <= 1
 p[3,2] <= 1
 p[3,3] <= 1
 p[3,4] <= 1
 p[3,5] <= 1
 p[3,6] <= 1
 p[3,7] <= 1
 p[4,0] <= 1
 p[4,1] <= 1
 p[4,2] <= 1
 p[4,3] <= 1
 p[4,4] <= 1
 p[4,5] <= 1
 p[4,6] <= 1
 p[4,7] <= 1
 p1[0] <= 1
 p1[1] <= 1
 p1[2] <= 1
 p1[3] <= 1
 p1[4] <= 1
 p2[0] <= 1
 p2[1] <= 1
 p2[2] <= 1
 p2[3] <= 1
 p2[4] <= 1
 p2[5] <= 1
 p2[6] <= 1
 p2[7] <= 1
 k_tx_1 <= 10
 k_tx_2 <= 10
 k_deg_1 <= 10
 k_deg_2 <= 10
 k_reg <= 10
End
